NAME          
ROWS
 N  OBJ
 L  c1
 L  c2
 L  c3
 L  c4
 L  c5
COLUMNS
    MARKER    'MARKER'                 'INTORG'
    x[1]      c1        715
    x[1]      c2        24
    x[1]      c3        536
    x[1]      c4        931
    x[1]      c5        435
    x[1]      OBJ       -497
    x[2]      c1        799
    x[2]      c2        491
    x[2]      c3        42
    x[2]      c4        512
    x[2]      c5        682
    x[2]      OBJ       -866
    x[3]      c1        265
    x[3]      c2        185
    x[3]      c3        366
    x[3]      c4        870
    x[3]      c5        235
    x[3]      OBJ       -333
    x[4]      c1        396
    x[4]      c2        676
    x[4]      c3        798
    x[4]      c4        560
    x[4]      c5        573
    x[4]      OBJ       -124
    x[5]      c1        667
    x[5]      c2        991
    x[5]      c3        637
    x[5]      c4        416
    x[5]      c5        885
    x[5]      OBJ       -18
    x[6]      c1        12
    x[6]      c2        521
    x[6]      c3        971
    x[6]      c4        783
    x[6]      c5        493
    x[6]      OBJ       -847
    x[7]      c1        411
    x[7]      c2        973
    x[7]      c3        262
    x[7]      c4        457
    x[7]      c5        855
    x[7]      OBJ       -766
    x[8]      c1        657
    x[8]      c2        119
    x[8]      c3        537
    x[8]      c4        821
    x[8]      c5        12
    x[8]      OBJ       -237
    x[9]      c1        929
    x[9]      c2        267
    x[9]      c3        403
    x[9]      c4        676
    x[9]      c5        450
    x[9]      OBJ       -237
    x[10]     c1        580
    x[10]     c2        464
    x[10]     c3        534
    x[10]     c4        872
    x[10]     c5        223
    x[10]     OBJ       -965
    x[11]     c1        434
    x[11]     c2        401
    x[11]     c3        457
    x[11]     c4        118
    x[11]     c5        233
    x[11]     OBJ       -142
    x[12]     c1        802
    x[12]     c2        960
    x[12]     c3        472
    x[12]     c4        202
    x[12]     c5        81
    x[12]     OBJ       -866
    x[13]     c1        273
    x[13]     c2        112
    x[13]     c3        67
    x[13]     c4        452
    x[13]     c5        571
    x[13]     OBJ       -291
    x[14]     c1        60
    x[14]     c2        22
    x[14]     c3        382
    x[14]     c4        754
    x[14]     c5        297
    x[14]     OBJ       -799
    x[15]     c1        257
    x[15]     c2        584
    x[15]     c3        654
    x[15]     c4        313
    x[15]     c5        779
    x[15]     OBJ       -605
RHS
    rhs       c1        3628
    rhs       c2        3395
    rhs       c3        3559
    rhs       c4        4368
    rhs       c5        3402
RANGES
BOUNDS
 BV bounds    x[1]
 BV bounds    x[2]
 BV bounds    x[3]
 BV bounds    x[4]
 BV bounds    x[5]
 BV bounds    x[6]
 BV bounds    x[7]
 BV bounds    x[8]
 BV bounds    x[9]
 BV bounds    x[10]
 BV bounds    x[11]
 BV bounds    x[12]
 BV bounds    x[13]
 BV bounds    x[14]
 BV bounds    x[15]
ENDATA
